(declare-const x0 Real)
(declare-const x1 Real)
(declare-const x2 Real)
(declare-const x3 Real)
(declare-const x4 Real)
(declare-const x5 Real)
(declare-const x6 Real)
(declare-const x7 Real)
(declare-const x8 Real)
(declare-const x9 Real)

(assert (<= 0.0 (- (^ (+ x0 x1 x2 x3 x4 x5 x6 x7 x8) 2.0) (^ (- 1.0 x9) 2.0))))
(assert (<= 0.0 (- (+ (^ (+ (* 0.996918 x0) (* 0.987689 x1) (* 0.972372 x2) (* 0.951059 x3) (* 0.923884 x4) (* 0.891013 x5) (* 0.852649 x6) (* 0.809028 x7) (* 0.760420 x8)) 2.0) (^ (+ (* 0.078457 x0) (* 0.156430 x1) (* 0.233439 x2) (* 0.309008 x3) (* 0.382673 x4) (* 0.453978 x5) (* 0.522485 x6) (* 0.587770 x7) (* 0.649432 x8)) 2.0)) (^ (- 1.0 x9) 2.0))))
(assert (<= 0.0 (- (+ (^ (+ (* 0.987689 x0) (* 0.951059 x1) (* 0.891013 x2) (* 0.809028 x3) (* 0.707123 x4) (* 0.587808 x5) (* 0.454019 x6) (* 0.309052 x7) (* 0.156476 x8)) 2.0) (^ (+ (* 0.156430 x0) (* 0.309008 x1) (* 0.453978 x2) (* 0.587770 x3) (* 0.707090 x4) (* 0.809001 x5) (* 0.890992 x6) (* 0.951045 x7) (* 0.987682 x8)) 2.0)) (^ (- 1.0 x9) 2.0))))
(assert (<= 0.0 (- (+ (^ (+ (* 0.972372 x0) (* 0.891013 x1) (* 0.760420 x2) (* 0.587808 x3) (* 0.382716 x4) (* 0.156476 x5) (* (- 0.078411) x6) (* (- 0.308964) x7) (* (- 0.522445) x8)) 2.0) (^ (+ (* 0.233439 x0) (* 0.453978 x1) (* 0.649432 x2) (* 0.809001 x3) (* 0.923866 x4) (* 0.987682 x5) (* 0.996921 x6) (* 0.951074 x7) (* 0.852673 x8)) 2.0)) (^ (- 1.0 x9) 2.0))))
(assert (<= 0.0 (- (+ (^ (+ (* 0.951059 x0) (* 0.809028 x1) (* 0.587808 x2) (* 0.309052 x3) (* 0.000046 x4) (* (- 0.308964) x5) (* (- 0.587733) x6) (* (- 0.808973) x7) (* (- 0.951031) x8)) 2.0) (^ (+ (* 0.309008 x0) (* 0.587770 x1) (* 0.809001 x2) (* 0.951045 x3) (* 1.000000 x4) (* 0.951074 x5) (* 0.809055 x6) (* 0.587845 x7) (* 0.309096 x8)) 2.0)) (^ (- 1.0 x9) 2.0))))
(assert (<= 0.0 (- (+ (^ (+ (* 0.923884 x0) (* 0.707123 x1) (* 0.382716 x2) (* 0.000046 x3) (* (- 0.382630) x4) (* (- 0.707058) x5) (* (- 0.923849) x6) (* (- 1.000000) x7) (* (- 0.923919) x8)) 2.0) (^ (+ (* 0.382673 x0) (* 0.707090 x1) (* 0.923866 x2) (* 1.000000 x3) (* 0.923902 x4) (* 0.707156 x5) (* 0.382758 x6) (* 0.000093 x7) (* (- 0.382587) x8)) 2.0)) (^ (- 1.0 x9) 2.0))))
(assert (<= 0.0 (- (+ (^ (+ (* 0.891013 x0) (* 0.587808 x1) (* 0.156476 x2) (* (- 0.308964) x3) (* (- 0.707058) x4) (* (- 0.951031) x5) (* (- 0.987704) x6) (* (- 0.809082) x7) (* (- 0.454102) x8)) 2.0) (^ (+ (* 0.453978 x0) (* 0.809001 x1) (* 0.987682 x2) (* 0.951074 x3) (* 0.707156 x4) (* 0.309096 x5) (* (- 0.156338) x6) (* (- 0.587695) x7) (* (- 0.890950) x8)) 2.0)) (^ (- 1.0 x9) 2.0))))
(assert (<= 0.0 (- (+ (^ (+ (* 0.852649 x0) (* 0.454019 x1) (* (- 0.078411) x2) (* (- 0.587733) x3) (* (- 0.923849) x4) (* (- 0.987704) x5) (* (- 0.760480) x6) (* (- 0.309140) x7) (* 0.233303 x8)) 2.0) (^ (+ (* 0.522485 x0) (* 0.890992 x1) (* 0.996921 x2) (* 0.809055 x3) (* 0.382758 x4) (* (- 0.156338) x5) (* (- 0.649362) x6) (* (- 0.951016) x7) (* (- 0.972404) x8)) 2.0)) (^ (- 1.0 x9) 2.0))))
(assert (<= 0.0 (- (+ (^ (+ (* 0.809028 x0) (* 0.309052 x1) (* (- 0.308964) x2) (* (- 0.808973) x3) (* (- 1.000000) x4) (* (- 0.809082) x5) (* (- 0.309140) x6) (* 0.308876 x7) (* 0.808919 x8)) 2.0) (^ (+ (* 0.587770 x0) (* 0.951045 x1) (* 0.951074 x2) (* 0.587845 x3) (* 0.000093 x4) (* (- 0.587695) x5) (* (- 0.951016) x6) (* (- 0.951102) x7) (* (- 0.587920) x8)) 2.0)) (^ (- 1.0 x9) 2.0))))
(assert (<= 0.0 (- (+ (^ (+ (* 0.760420 x0) (* 0.156476 x1) (* (- 0.522445) x2) (* (- 0.951031) x3) (* (- 0.923919) x4) (* (- 0.454102) x5) (* 0.233303 x6) (* 0.808919 x7) (* 0.996932 x8)) 2.0) (^ (+ (* 0.649432 x0) (* 0.987682 x1) (* 0.852673 x2) (* 0.309096 x3) (* (- 0.382587) x4) (* (- 0.890950) x5) (* (- 0.972404) x6) (* (- 0.587920) x7) (* 0.078272 x8)) 2.0)) (^ (- 1.0 x9) 2.0))))
(assert (<= 0.0 (- (^ (+ 1.0 x9) 2.0) (^ (+ x0 x1 x2 x3 x4 x5 x6 x7 x8) 2.0))))
(assert (<= 0.0 (- (^ (+ 1.0 x9) 2.0) (+ (^ (+ (* 0.996918 x0) (* 0.987689 x1) (* 0.972372 x2) (* 0.951059 x3) (* 0.923884 x4) (* 0.891013 x5) (* 0.852649 x6) (* 0.809028 x7) (* 0.760420 x8)) 2.0) (^ (+ (* 0.078457 x0) (* 0.156430 x1) (* 0.233439 x2) (* 0.309008 x3) (* 0.382673 x4) (* 0.453978 x5) (* 0.522485 x6) (* 0.587770 x7) (* 0.649432 x8)) 2.0)))))
(assert (<= 0.0 (- (^ (+ 1.0 x9) 2.0) (+ (^ (+ (* 0.987689 x0) (* 0.951059 x1) (* 0.891013 x2) (* 0.809028 x3) (* 0.707123 x4) (* 0.587808 x5) (* 0.454019 x6) (* 0.309052 x7) (* 0.156476 x8)) 2.0) (^ (+ (* 0.156430 x0) (* 0.309008 x1) (* 0.453978 x2) (* 0.587770 x3) (* 0.707090 x4) (* 0.809001 x5) (* 0.890992 x6) (* 0.951045 x7) (* 0.987682 x8)) 2.0)))))
(assert (<= 0.0 (- (^ (+ 1.0 x9) 2.0) (+ (^ (+ (* 0.972372 x0) (* 0.891013 x1) (* 0.760420 x2) (* 0.587808 x3) (* 0.382716 x4) (* 0.156476 x5) (* (- 0.078411) x6) (* (- 0.308964) x7) (* (- 0.522445) x8)) 2.0) (^ (+ (* 0.233439 x0) (* 0.453978 x1) (* 0.649432 x2) (* 0.809001 x3) (* 0.923866 x4) (* 0.987682 x5) (* 0.996921 x6) (* 0.951074 x7) (* 0.852673 x8)) 2.0)))))
(assert (<= 0.0 (- (^ (+ 1.0 x9) 2.0) (+ (^ (+ (* 0.951059 x0) (* 0.809028 x1) (* 0.587808 x2) (* 0.309052 x3) (* 0.000046 x4) (* (- 0.308964) x5) (* (- 0.587733) x6) (* (- 0.808973) x7) (* (- 0.951031) x8)) 2.0) (^ (+ (* 0.309008 x0) (* 0.587770 x1) (* 0.809001 x2) (* 0.951045 x3) (* 1.000000 x4) (* 0.951074 x5) (* 0.809055 x6) (* 0.587845 x7) (* 0.309096 x8)) 2.0)))))
(assert (<= 0.0 (- (^ (+ 1.0 x9) 2.0) (+ (^ (+ (* 0.923884 x0) (* 0.707123 x1) (* 0.382716 x2) (* 0.000046 x3) (* (- 0.382630) x4) (* (- 0.707058) x5) (* (- 0.923849) x6) (* (- 1.000000) x7) (* (- 0.923919) x8)) 2.0) (^ (+ (* 0.382673 x0) (* 0.707090 x1) (* 0.923866 x2) (* 1.000000 x3) (* 0.923902 x4) (* 0.707156 x5) (* 0.382758 x6) (* 0.000093 x7) (* (- 0.382587) x8)) 2.0)))))
(assert (<= 0.0 (- (^ (+ 1.0 x9) 2.0) (+ (^ (+ (* 0.891013 x0) (* 0.587808 x1) (* 0.156476 x2) (* (- 0.308964) x3) (* (- 0.707058) x4) (* (- 0.951031) x5) (* (- 0.987704) x6) (* (- 0.809082) x7) (* (- 0.454102) x8)) 2.0) (^ (+ (* 0.453978 x0) (* 0.809001 x1) (* 0.987682 x2) (* 0.951074 x3) (* 0.707156 x4) (* 0.309096 x5) (* (- 0.156338) x6) (* (- 0.587695) x7) (* (- 0.890950) x8)) 2.0)))))
(assert (<= 0.0 (- (^ (+ 1.0 x9) 2.0) (+ (^ (+ (* 0.852649 x0) (* 0.454019 x1) (* (- 0.078411) x2) (* (- 0.587733) x3) (* (- 0.923849) x4) (* (- 0.987704) x5) (* (- 0.760480) x6) (* (- 0.309140) x7) (* 0.233303 x8)) 2.0) (^ (+ (* 0.522485 x0) (* 0.890992 x1) (* 0.996921 x2) (* 0.809055 x3) (* 0.382758 x4) (* (- 0.156338) x5) (* (- 0.649362) x6) (* (- 0.951016) x7) (* (- 0.972404) x8)) 2.0)))))
(assert (<= 0.0 (- (^ (+ 1.0 x9) 2.0) (+ (^ (+ (* 0.809028 x0) (* 0.309052 x1) (* (- 0.308964) x2) (* (- 0.808973) x3) (* (- 1.000000) x4) (* (- 0.809082) x5) (* (- 0.309140) x6) (* 0.308876 x7) (* 0.808919 x8)) 2.0) (^ (+ (* 0.587770 x0) (* 0.951045 x1) (* 0.951074 x2) (* 0.587845 x3) (* 0.000093 x4) (* (- 0.587695) x5) (* (- 0.951016) x6) (* (- 0.951102) x7) (* (- 0.587920) x8)) 2.0)))))
(assert (<= 0.0 (- (^ (+ 1.0 x9) 2.0) (+ (^ (+ (* 0.760420 x0) (* 0.156476 x1) (* (- 0.522445) x2) (* (- 0.951031) x3) (* (- 0.923919) x4) (* (- 0.454102) x5) (* 0.233303 x6) (* 0.808919 x7) (* 0.996932 x8)) 2.0) (^ (+ (* 0.649432 x0) (* 0.987682 x1) (* 0.852673 x2) (* 0.309096 x3) (* (- 0.382587) x4) (* (- 0.890950) x5) (* (- 0.972404) x6) (* (- 0.587920) x7) (* 0.078272 x8)) 2.0)))))
(assert (<= 0.0 (- (^ x9 2.0) (+ (^ (+ (* 0.587808 x0) (* (- 0.308964) x1) (* (- 0.951031) x2) (* (- 0.809082) x3) (* (- 0.000139) x4) (* 0.808919 x5) (* 0.951117 x6) (* 0.309228 x7) (* (- 0.587583) x8)) 2.0) (^ (+ (* 0.809001 x0) (* 0.951074 x1) (* 0.309096 x2) (* (- 0.587695) x3) (* (- 1.000000) x4) (* (- 0.587920) x5) (* 0.308832 x6) (* 0.950988 x7) (* 0.809164 x8)) 2.0)))))
(assert (<= 0.0 (- (^ x9 2.0) (+ (^ (+ (* 0.454019 x0) (* (- 0.587733) x1) (* (- 0.987704) x2) (* (- 0.309140) x3) (* 0.706992 x4) (* 0.951117 x5) (* 0.156659 x6) (* (- 0.808864) x7) (* (- 0.891139) x8)) 2.0) (^ (+ (* 0.890992 x0) (* 0.809055 x1) (* (- 0.156338) x2) (* (- 0.951016) x3) (* (- 0.707221) x4) (* 0.308832 x5) (* 0.987653 x6) (* 0.587995 x7) (* (- 0.453730) x8)) 2.0)))))
(assert (<= 0.0 (- (^ x9 2.0) (+ (^ (+ (* 0.309052 x0) (* (- 0.808973) x1) (* (- 0.809082) x2) (* 0.308876 x3) (* 1.000000 x4) (* 0.309228 x5) (* (- 0.808864) x6) (* (- 0.809191) x7) (* 0.308700 x8)) 2.0) (^ (+ (* 0.951045 x0) (* 0.587845 x1) (* (- 0.587695) x2) (* (- 0.951102) x3) (* (- 0.000185) x4) (* 0.950988 x5) (* 0.587995 x6) (* (- 0.587545) x7) (* (- 0.951160) x8)) 2.0)))))
(assert (<= 0.0 (- (^ x9 2.0) (+ (^ (+ (* 0.156476 x0) (* (- 0.951031) x1) (* (- 0.454102) x2) (* 0.808919 x3) (* 0.707254 x4) (* (- 0.587583) x5) (* (- 0.891139) x6) (* 0.308700 x7) (* 0.987747 x8)) 2.0) (^ (+ (* 0.987682 x0) (* 0.309096 x1) (* (- 0.890950) x2) (* (- 0.587920) x3) (* 0.706959 x4) (* 0.809164 x5) (* (- 0.453730) x6) (* (- 0.951160) x7) (* 0.156064 x8)) 2.0)))))
(assert (<= 0.0 (- (^ x9 2.0) (+ (^ (+ (* 0.000046 x0) (* (- 1.000000) x1) (* (- 0.000139) x2) (* 1.000000 x3) (* 0.000232 x4) (* (- 1.000000) x5) (* (- 0.000324) x6) (* 1.000000 x7) (* 0.000417 x8)) 2.0) (^ (+ (* 1.000000 x0) (* 0.000093 x1) (* (- 1.000000) x2) (* (- 0.000185) x3) (* 1.000000 x4) (* 0.000278 x5) (* (- 1.000000) x6) (* (- 0.000371) x7) (* 1.000000 x8)) 2.0)))))
(assert (<= 0.0 (- (^ x9 2.0) (+ (^ (+ (* (- 0.156384) x0) (* (- 0.951088) x1) (* 0.453854 x2) (* 0.809137 x3) (* (- 0.706927) x4) (* (- 0.588033) x5) (* 0.890845 x6) (* 0.309405 x7) (* (- 0.987616) x8)) 2.0) (^ (+ (* 0.987696 x0) (* (- 0.308920) x1) (* (- 0.891076) x2) (* 0.587620 x3) (* 0.707287 x4) (* (- 0.808837) x5) (* (- 0.454308) x6) (* 0.950930 x7) (* 0.156887 x8)) 2.0)))))
(assert (<= 0.0 (- (^ x9 2.0) (+ (^ (+ (* (- 0.308964) x0) (* (- 0.809082) x1) (* 0.808919 x2) (* 0.309228 x3) (* (- 1.000000) x4) (* 0.308700 x5) (* 0.809246 x6) (* (- 0.808756) x7) (* (- 0.309493) x8)) 2.0) (^ (+ (* 0.951074 x0) (* (- 0.587695) x1) (* (- 0.587920) x2) (* 0.950988 x3) (* 0.000278 x4) (* (- 0.951160) x5) (* 0.587470 x6) (* 0.588145 x7) (* (- 0.950902) x8)) 2.0)))))
(assert (<= 0.0 (- (^ x9 2.0) (+ (^ (+ (* (- 0.453937) x0) (* (- 0.587883) x1) (* 0.987660 x2) (* (- 0.308788) x3) (* (- 0.707320) x4) (* 0.950945 x5) (* (- 0.156018) x6) (* (- 0.809300) x7) (* 0.890760 x8)) 2.0) (^ (+ (* 0.891034 x0) (* (- 0.808946) x1) (* (- 0.156613) x2) (* 0.951131 x3) (* (- 0.706894) x4) (* (- 0.309361) x5) (* 0.987754 x6) (* (- 0.587395) x7) (* (- 0.454473) x8)) 2.0)))))
(assert (<= 0.0 (- (^ x9 2.0) (+ (^ (+ (* (- 0.587733) x0) (* (- 0.309140) x1) (* 0.951117 x2) (* (- 0.808864) x3) (* (- 0.000324) x4) (* 0.809246 x5) (* (- 0.950916) x6) (* 0.308523 x7) (* 0.588257 x8)) 2.0) (^ (+ (* 0.809055 x0) (* (- 0.951016) x1) (* 0.308832 x2) (* 0.587995 x3) (* (- 1.000000) x4) (* 0.587470 x5) (* 0.309449 x6) (* (- 0.951217) x7) (* 0.808674 x8)) 2.0)))))
(assert (<= 0.0 (- (^ x9 2.0) (+ (^ (+ (* (- 0.707058) x0) (* (- 0.000139) x1) (* 0.707254 x2) (* (- 1.000000) x3) (* 0.706861 x4) (* 0.000417 x5) (* (- 0.707451) x6) (* 1.000000 x7) (* (- 0.706664) x8)) 2.0) (^ (+ (* 0.707156 x0) (* (- 1.000000) x1) (* 0.706959 x2) (* 0.000278 x3) (* (- 0.707352) x4) (* 1.000000 x5) (* (- 0.706763) x6) (* (- 0.000556) x7) (* 0.707549 x8)) 2.0)))))
(assert (<= 0.0 (- (^ x9 2.0) (+ (^ (+ (* (- 0.808973) x0) (* 0.308876 x1) (* 0.309228 x2) (* (- 0.809191) x3) (* 1.000000 x4) (* (- 0.808756) x5) (* 0.308523 x6) (* 0.309581 x7) (* (- 0.809409) x8)) 2.0) (^ (+ (* 0.587845 x0) (* (- 0.951102) x1) (* 0.950988 x2) (* (- 0.587545) x3) (* (- 0.000371) x4) (* 0.588145 x5) (* (- 0.951217) x6) (* 0.950873 x7) (* (- 0.587245) x8)) 2.0)))))
(assert (<= 0.0 (- (^ x9 2.0) (+ (^ (+ (* (- 0.890971) x0) (* 0.587658 x1) (* (- 0.156201) x2) (* (- 0.309317) x3) (* 0.707385 x4) (* (- 0.951202) x5) (* 0.987602 x6) (* (- 0.808647) x7) (* 0.453359 x8)) 2.0) (^ (+ (* 0.454061 x0) (* (- 0.809110) x1) (* 0.987725 x2) (* (- 0.950959) x3) (* 0.706828 x4) (* (- 0.308568) x5) (* (- 0.156979) x6) (* 0.588295 x7) (* (- 0.891328) x8)) 2.0)))))
(assert (<= 0.0 (- (^ x9 2.0) (+ (^ (+ (* (- 0.951031) x0) (* 0.808919 x1) (* (- 0.587583) x2) (* 0.308700 x3) (* 0.000417 x4) (* (- 0.309493) x5) (* 0.588257 x6) (* (- 0.809409) x7) (* 0.951288 x8)) 2.0) (^ (+ (* 0.309096 x0) (* (- 0.587920) x1) (* 0.809164 x2) (* (- 0.951160) x3) (* 1.000000 x4) (* (- 0.950902) x5) (* 0.808674 x6) (* (- 0.587245) x7) (* 0.308303 x8)) 2.0)))))
(assert (<= 0.0 (- (^ x9 2.0) (+ (^ (+ (* (- 0.987675) x0) (* 0.951002 x1) (* (- 0.890887) x2) (* 0.808810 x3) (* (- 0.706796) x4) (* 0.587358 x5) (* (- 0.453441) x6) (* 0.308347 x7) (* (- 0.155652) x8)) 2.0) (^ (+ (* 0.156521 x0) (* (- 0.309184) x1) (* 0.454226 x2) (* (- 0.588070) x3) (* 0.707418 x4) (* (- 0.809327) x5) (* 0.891286 x6) (* (- 0.951274) x7) (* 0.987812 x8)) 2.0)))))
(assert (<= 0.0 (- (^ x9 2.0) (+ (^ (+ (* (- 1.000000) x0) (* 1.000000 x1) (* (- 1.000000) x2) (* 1.000000 x3) (* (- 1.000000) x4) (* 1.000000 x5) (* (- 1.000000) x6) (* 1.000000 x7) (* (- 1.000000) x8)) 2.0) (^ (+ (* 0.000093 x0) (* (- 0.000185) x1) (* 0.000278 x2) (* (- 0.000371) x3) (* 0.000463 x4) (* (- 0.000556) x5) (* 0.000649 x6) (* (- 0.000741) x7) (* 0.000834 x8)) 2.0)))))

(minimize
	 (* 1.0 x9)
)
(check-sat)
(get-objectives)
(exit)

